data/CVRPLIB/Vrp-Set-XML100/instances/XML100_2314_25.vrp
NAME : XML100_2314_25
COMMENT : Generated by Queiroga, Sadykov, Uchoa, and Vidal (2021)
TYPE : CVRP
DIMENSION : 101
EDGE_WEIGHT_TYPE : EUC_2D
CAPACITY : 15
NODE_COORD_SECTION
1    500  500 
2    356  403 
3    300  973 
4    156  649 
5    940  787 
6    480  869 
7    307  939 
8    444  260 
9    167  751 
10   440  944 
11   942  423 
12   236  702 
13   877  350 
14   874  233 
15   430  534 
16   571  82  
17   852  555 
18   564  554 
19   729  116 
20   14   750 
21   333  937 
22   728  18  
23   529  39  
24   309  54  
25   890  99  
26   119  899 
27   402  380 
28   281  660 
29   300  157 
30   416  791 
31   370  919 
32   280  838 
33   529  833 
34   536  33  
35   253  751 
36   239  866 
37   851  221 
38   779  60  
39   545  913 
40   828  579 
41   902  212 
42   681  49  
43   237  787 
44   649  994 
45   848  599 
46   590  33  
47   720  149 
48   845  509 
49   298  250 
50   622  105 
51   589  714 
52   376  895 
53   572  82  
54   815  439 
55   339  614 
56   892  925 
57   527  28  
58   323  722 
59   279  236 
60   522  488 
61   425  750 
62   602  604 
63   44   191 
64   353  924 
65   505  713 
66   680  56  
67   925  936 
68   103  890 
69   621  549 
70   794  420 
71   48   72  
72   446  746 
73   906  32  
74   357  700 
75   24   263 
76   138  239 
77   559  84  
78   747  59  
79   700  602 
80   898  497 
81   55   420 
82   436  953 
83   883  115 
84   610  393 
85   535  145 
86   438  207 
87   376  355 
88   414  860 
89   127  321 
90   369  905 
91   804  741 
92   786  807 
93   870  629 
94   940  617 
95   69   873 
96   865  69  
97   853  598 
98   857  19  
99   675  52  
100  788  15  
101  613  67  
DEMAND_SECTION
1    0   
2    1   
3    1   
4    1   
5    1   
6    1   
7    1   
8    1   
9    1   
10   1   
11   1   
12   1   
13   1   
14   1   
15   1   
16   1   
17   1   
18   1   
19   1   
20   1   
21   1   
22   1   
23   1   
24   1   
25   1   
26   1   
27   1   
28   1   
29   1   
30   1   
31   1   
32   1   
33   1   
34   1   
35   1   
36   1   
37   1   
38   1   
39   1   
40   1   
41   1   
42   1   
43   1   
44   1   
45   1   
46   1   
47   1   
48   1   
49   1   
50   1   
51   1   
52   1   
53   1   
54   1   
55   1   
56   1   
57   1   
58   1   
59   1   
60   1   
61   1   
62   1   
63   1   
64   1   
65   1   
66   1   
67   1   
68   1   
69   1   
70   1   
71   1   
72   1   
73   1   
74   1   
75   1   
76   1   
77   1   
78   1   
79   1   
80   1   
81   1   
82   1   
83   1   
84   1   
85   1   
86   1   
87   1   
88   1   
89   1   
90   1   
91   1   
92   1   
93   1   
94   1   
95   1   
96   1   
97   1   
98   1   
99   1   
100  1   
101  1   
DEPOT_SECTION
1
-1
EOF
