data/CVRPLIB/Vrp-Set-XML100/solutions/XML100_2314_25.sol
Route #1: 46 18 37 77 21 99 97 72 95 24 82 40 13 36 83
Route #2: 68 78 39 44 96 92 93 16 47 79 10 12 53 69 59
Route #3: 73 57 34 42 31 35 25 67 94 19 8 3 11 27 54
Route #4: 49 65 41 98 100 45 33 56 22 76 15 52 84 85 7
Route #5: 71 60 29 87 51 89 30 63 20 6 2 81 9 5 64
Route #6: 14 1 80 88 75 74 62 70 23 28 58 48 86 26
Route #7: 50 32 38 43 55 66 4 91 90 61 17
Cost 10220
